p cnf 179 155
-1 8 9 15 20 22 29 31 66 71 88 96 101 107 110 111 129 136 153 154 -155 -156 -157 -158 -159 -160 -163 -165 -166 -170 -172 -173 -174 -175 -176 -177 -178 -179 0 
-2 -3 106 154 -155 -156 -157 -158 -159 -160 -163 -165 -166 -170 -172 -173 -174 -175 -176 -177 -178 -179 0 
-4 6 11 13 21 23 25 28 42 56 61 67 72 79 81 85 120 122 123 124 125 126 133 -5 30 33 50 55 60 64 65 77 90 91 94 97 108 117 127 151 152 154 -155 -156 -157 -158 -159 -160 -163 -165 -166 -170 -172 -173 -174 -175 -176 -177 -178 -179 0 
-6 4 11 13 21 23 25 28 42 56 61 67 72 79 81 85 120 122 123 124 125 126 133 -7 155 -154 -156 -157 -158 -159 -160 -163 -165 -166 -170 -172 -173 -174 -175 -176 -177 -178 -179 0 
-8 1 9 15 20 22 29 31 66 71 88 96 101 107 110 111 129 136 153 155 -154 -156 -157 -158 -159 -160 -163 -165 -166 -170 -172 -173 -174 -175 -176 -177 -178 -179 0 
-4 6 11 13 21 23 25 28 42 56 61 67 72 79 81 85 120 122 123 124 125 126 133 -9 1 8 15 20 22 29 31 66 71 88 96 101 107 110 111 129 136 153 154 -155 -156 -157 -158 -159 -160 -163 -165 -166 -170 -172 -173 -174 -175 -176 -177 -178 -179 0 
-5 30 33 50 55 60 64 65 77 90 91 94 97 108 117 127 151 152 -6 4 11 13 21 23 25 28 42 56 61 67 72 79 81 85 120 122 123 124 125 126 133 155 -154 -156 -157 -158 -159 -160 -163 -165 -166 -170 -172 -173 -174 -175 -176 -177 -178 -179 0 
-10 19 24 32 38 41 57 62 95 100 102 119 128 138 -11 4 6 13 21 23 25 28 42 56 61 67 72 79 81 85 120 122 123 124 125 126 133 154 -155 -156 -157 -158 -159 -160 -163 -165 -166 -170 -172 -173 -174 -175 -176 -177 -178 -179 0 
-12 -1 8 9 15 20 22 29 31 66 71 88 96 101 107 110 111 129 136 153 154 -155 -156 -157 -158 -159 -160 -163 -165 -166 -170 -172 -173 -174 -175 -176 -177 -178 -179 0 
-13 4 6 11 21 23 25 28 42 56 61 67 72 79 81 85 120 122 123 124 125 126 133 -14 156 -154 -155 -157 -158 -159 -160 -163 -165 -166 -170 -172 -173 -174 -175 -176 -177 -178 -179 0 
-15 1 8 9 20 22 29 31 66 71 88 96 101 107 110 111 129 136 153 -16 40 43 80 157 -154 -155 -156 -158 -159 -160 -163 -165 -166 -170 -172 -173 -174 -175 -176 -177 -178 -179 0 
-17 37 158 -154 -155 -156 -157 -159 -160 -163 -165 -166 -170 -172 -173 -174 -175 -176 -177 -178 -179 0 
-18 -1 8 9 15 20 22 29 31 66 71 88 96 101 107 110 111 129 136 153 154 -155 -156 -157 -158 -159 -160 -163 -165 -166 -170 -172 -173 -174 -175 -176 -177 -178 -179 0 
-19 10 24 32 38 41 57 62 95 100 102 119 128 138 157 -154 -155 -156 -158 -159 -160 -163 -165 -166 -170 -172 -173 -174 -175 -176 -177 -178 -179 0 
-20 1 8 9 15 22 29 31 66 71 88 96 101 107 110 111 129 136 153 159 -154 -155 -156 -157 -158 -160 -163 -165 -166 -170 -172 -173 -174 -175 -176 -177 -178 -179 0 
-21 4 6 11 13 23 25 28 42 56 61 67 72 79 81 85 120 122 123 124 125 126 133 159 -154 -155 -156 -157 -158 -160 -163 -165 -166 -170 -172 -173 -174 -175 -176 -177 -178 -179 0 
-22 1 8 9 15 20 29 31 66 71 88 96 101 107 110 111 129 136 153 -23 4 6 11 13 21 25 28 42 56 61 67 72 79 81 85 120 122 123 124 125 126 133 160 -154 -155 -156 -157 -158 -159 -163 -165 -166 -170 -172 -173 -174 -175 -176 -177 -178 -179 0 
-24 10 19 32 38 41 57 62 95 100 102 119 128 138 -25 4 6 11 13 21 23 28 42 56 61 67 72 79 81 85 120 122 123 124 125 126 133 157 -154 -155 -156 -158 -159 -160 -163 -165 -166 -170 -172 -173 -174 -175 -176 -177 -178 -179 0 
-26 139 140 141 142 143 144 145 147 160 -154 -155 -156 -157 -158 -159 -163 -165 -166 -170 -172 -173 -174 -175 -176 -177 -178 -179 0 
-27 -28 4 6 11 13 21 23 25 42 56 61 67 72 79 81 85 120 122 123 124 125 126 133 159 -154 -155 -156 -157 -158 -160 -163 -165 -166 -170 -172 -173 -174 -175 -176 -177 -178 -179 0 
-29 1 8 9 15 20 22 31 66 71 88 96 101 107 110 111 129 136 153 154 -155 -156 -157 -158 -159 -160 -163 -165 -166 -170 -172 -173 -174 -175 -176 -177 -178 -179 0 
-30 5 33 50 55 60 64 65 77 90 91 94 97 108 117 127 151 152 154 -155 -156 -157 -158 -159 -160 -163 -165 -166 -170 -172 -173 -174 -175 -176 -177 -178 -179 0 
-31 1 8 9 15 20 22 29 66 71 88 96 101 107 110 111 129 136 153 -32 10 19 24 38 41 57 62 95 100 102 119 128 138 155 -154 -156 -157 -158 -159 -160 -163 -165 -166 -170 -172 -173 -174 -175 -176 -177 -178 -179 0 
-33 5 30 50 55 60 64 65 77 90 91 94 97 108 117 127 151 152 154 -155 -156 -157 -158 -159 -160 -163 -165 -166 -170 -172 -173 -174 -175 -176 -177 -178 -179 0 
-34 103 -35 36 158 -154 -155 -156 -157 -159 -160 -163 -165 -166 -170 -172 -173 -174 -175 -176 -177 -178 -179 0 
-17 37 161 -154 -155 -156 -157 -158 -159 -160 -163 -165 -166 -170 -172 -173 -174 -175 -176 -177 -178 -179 -35 -36 0 
-35 36 162 -17 -37 -154 -155 -156 -157 -158 -159 -160 -163 -165 -166 -170 -172 -173 -174 -175 -176 -177 -178 -179 0 
-35 36 158 -154 -155 -156 -157 -159 -160 -163 -165 -166 -170 -172 -173 -174 -175 -176 -177 -178 -179 0 
-36 35 156 -154 -155 -157 -158 -159 -160 -163 -165 -166 -170 -172 -173 -174 -175 -176 -177 -178 -179 0 
-37 17 156 -154 -155 -157 -158 -159 -160 -163 -165 -166 -170 -172 -173 -174 -175 -176 -177 -178 -179 0 
-38 10 19 24 32 41 57 62 95 100 102 119 128 138 -39 163 -154 -155 -156 -157 -158 -159 -160 -165 -166 -170 -172 -173 -174 -175 -176 -177 -178 -179 0 
-40 16 43 80 -3 106 154 -155 -156 -157 -158 -159 -160 -163 -165 -166 -170 -172 -173 -174 -175 -176 -177 -178 -179 0 
-41 10 19 24 32 38 57 62 95 100 102 119 128 138 -6 4 11 13 21 23 25 28 42 56 61 67 72 79 81 85 120 122 123 124 125 126 133 155 -154 -156 -157 -158 -159 -160 -163 -165 -166 -170 -172 -173 -174 -175 -176 -177 -178 -179 0 
-42 4 6 11 13 21 23 25 28 56 61 67 72 79 81 85 120 122 123 124 125 126 133 -9 1 8 15 20 22 29 31 66 71 88 96 101 107 110 111 129 136 153 156 -154 -155 -157 -158 -159 -160 -163 -165 -166 -170 -172 -173 -174 -175 -176 -177 -178 -179 0 
-43 16 40 80 164 -154 -155 -156 -157 -158 -159 -160 -163 -165 -166 -170 -172 -173 -174 -175 -176 -177 -178 -179 0 
-44 74 -45 149 165 -154 -155 -156 -157 -158 -159 -160 -163 -166 -170 -172 -173 -174 -175 -176 -177 -178 -179 0 
-44 74 -46 -45 149 165 -154 -155 -156 -157 -158 -159 -160 -163 -166 -170 -172 -173 -174 -175 -176 -177 -178 -179 0 
-47 134 -48 154 -155 -156 -157 -158 -159 -160 -163 -165 -166 -170 -172 -173 -174 -175 -176 -177 -178 -179 0 
-49 -50 5 30 33 55 60 64 65 77 90 91 94 97 108 117 127 151 152 166 -154 -155 -156 -157 -158 -159 -160 -163 -165 -170 -172 -173 -174 -175 -176 -177 -178 -179 0 
-50 5 30 33 55 60 64 65 77 90 91 94 97 108 117 127 151 152 166 -154 -155 -156 -157 -158 -159 -160 -163 -165 -170 -172 -173 -174 -175 -176 -177 -178 -179 0 
-51 78 86 92 154 -155 -156 -157 -158 -159 -160 -163 -165 -166 -170 -172 -173 -174 -175 -176 -177 -178 -179 0 
-52 155 -154 -156 -157 -158 -159 -160 -163 -165 -166 -170 -172 -173 -174 -175 -176 -177 -178 -179 0 
-53 -54 155 -154 -156 -157 -158 -159 -160 -163 -165 -166 -170 -172 -173 -174 -175 -176 -177 -178 -179 0 
-55 5 30 33 50 60 64 65 77 90 91 94 97 108 117 127 151 152 154 -155 -156 -157 -158 -159 -160 -163 -165 -166 -170 -172 -173 -174 -175 -176 -177 -178 -179 0 
-3 106 -56 4 6 11 13 21 23 25 28 42 61 67 72 79 81 85 120 122 123 124 125 126 133 154 -155 -156 -157 -158 -159 -160 -163 -165 -166 -170 -172 -173 -174 -175 -176 -177 -178 -179 0 
-57 10 19 24 32 38 41 62 95 100 102 119 128 138 -58 154 -155 -156 -157 -158 -159 -160 -163 -165 -166 -170 -172 -173 -174 -175 -176 -177 -178 -179 0 
-59 105 155 -154 -156 -157 -158 -159 -160 -163 -165 -166 -170 -172 -173 -174 -175 -176 -177 -178 -179 0 
-60 5 30 33 50 55 64 65 77 90 91 94 97 108 117 127 151 152 155 -154 -156 -157 -158 -159 -160 -163 -165 -166 -170 -172 -173 -174 -175 -176 -177 -178 -179 0 
-61 4 6 11 13 21 23 25 28 42 56 67 72 79 81 85 120 122 123 124 125 126 133 -62 10 19 24 32 38 41 57 95 100 102 119 128 138 163 -154 -155 -156 -157 -158 -159 -160 -165 -166 -170 -172 -173 -174 -175 -176 -177 -178 -179 0 
-12 -63 155 -154 -156 -157 -158 -159 -160 -163 -165 -166 -170 -172 -173 -174 -175 -176 -177 -178 -179 0 
-64 5 30 33 50 55 60 65 77 90 91 94 97 108 117 127 151 152 163 -154 -155 -156 -157 -158 -159 -160 -165 -166 -170 -172 -173 -174 -175 -176 -177 -178 -179 0 
-65 5 30 33 50 55 60 64 77 90 91 94 97 108 117 127 151 152 155 -154 -156 -157 -158 -159 -160 -163 -165 -166 -170 -172 -173 -174 -175 -176 -177 -178 -179 0 
-66 1 8 9 15 20 22 29 31 71 88 96 101 107 110 111 129 136 153 -67 4 6 11 13 21 23 25 28 42 56 61 72 79 81 85 120 122 123 124 125 126 133 155 -154 -156 -157 -158 -159 -160 -163 -165 -166 -170 -172 -173 -174 -175 -176 -177 -178 -179 0 
-68 155 -154 -156 -157 -158 -159 -160 -163 -165 -166 -170 -172 -173 -174 -175 -176 -177 -178 -179 0 
-69 167 -12 -154 -155 -156 -157 -158 -159 -160 -163 -165 -166 -170 -172 -173 -174 -175 -176 -177 -178 -179 0 
-70 113 154 -155 -156 -157 -158 -159 -160 -163 -165 -166 -170 -172 -173 -174 -175 -176 -177 -178 -179 0 
-71 1 8 9 15 20 22 29 31 66 88 96 101 107 110 111 129 136 153 168 -84 -154 -155 -156 -157 -158 -159 -160 -163 -165 -166 -170 -172 -173 -174 -175 -176 -177 -178 -179 0 
-72 4 6 11 13 21 23 25 28 42 56 61 67 79 81 85 120 122 123 124 125 126 133 -73 -74 44 169 -154 -155 -156 -157 -158 -159 -160 -163 -165 -166 -170 -172 -173 -174 -175 -176 -177 -178 -179 0 
-69 170 -154 -155 -156 -157 -158 -159 -160 -163 -165 -166 -172 -173 -174 -175 -176 -177 -178 -179 0 
-72 4 6 11 13 21 23 25 28 42 56 61 67 79 81 85 120 122 123 124 125 126 133 -75 130 132 -74 44 171 -154 -155 -156 -157 -158 -159 -160 -163 -165 -166 -170 -172 -173 -174 -175 -176 -177 -178 -179 0 
-76 -72 4 6 11 13 21 23 25 28 42 56 61 67 79 81 85 120 122 123 124 125 126 133 167 -12 -154 -155 -156 -157 -158 -159 -160 -163 -165 -166 -170 -172 -173 -174 -175 -176 -177 -178 -179 0 
-77 5 30 33 50 55 60 64 65 90 91 94 97 108 117 127 151 152 155 -154 -156 -157 -158 -159 -160 -163 -165 -166 -170 -172 -173 -174 -175 -176 -177 -178 -179 0 
-29 1 8 9 15 20 22 31 66 71 88 96 101 107 110 111 129 136 153 -56 4 6 11 13 21 23 25 28 42 61 67 72 79 81 85 120 122 123 124 125 126 133 154 -155 -156 -157 -158 -159 -160 -163 -165 -166 -170 -172 -173 -174 -175 -176 -177 -178 -179 0 
-9 1 8 15 20 22 29 31 66 71 88 96 101 107 110 111 129 136 153 -6 4 11 13 21 23 25 28 42 56 61 67 72 79 81 85 120 122 123 124 125 126 133 155 -154 -156 -157 -158 -159 -160 -163 -165 -166 -170 -172 -173 -174 -175 -176 -177 -178 -179 0 
-78 51 86 92 -79 4 6 11 13 21 23 25 28 42 56 61 67 72 81 85 120 122 123 124 125 126 133 159 -154 -155 -156 -157 -158 -160 -163 -165 -166 -170 -172 -173 -174 -175 -176 -177 -178 -179 0 
-80 16 40 43 -81 4 6 11 13 21 23 25 28 42 56 61 67 72 79 85 120 122 123 124 125 126 133 157 -154 -155 -156 -158 -159 -160 -163 -165 -166 -170 -172 -173 -174 -175 -176 -177 -178 -179 0 
-82 157 -154 -155 -156 -158 -159 -160 -163 -165 -166 -170 -172 -173 -174 -175 -176 -177 -178 -179 0 
-44 74 -83 165 -154 -155 -156 -157 -158 -159 -160 -163 -166 -170 -172 -173 -174 -175 -176 -177 -178 -179 0 
-84 -30 5 33 50 55 60 64 65 77 90 91 94 97 108 117 127 151 152 154 -155 -156 -157 -158 -159 -160 -163 -165 -166 -170 -172 -173 -174 -175 -176 -177 -178 -179 0 
-5 30 33 50 55 60 64 65 77 90 91 94 97 108 117 127 151 152 -85 4 6 11 13 21 23 25 28 42 56 61 67 72 79 81 120 122 123 124 125 126 133 158 -154 -155 -156 -157 -159 -160 -163 -165 -166 -170 -172 -173 -174 -175 -176 -177 -178 -179 0 
-86 51 78 92 155 -154 -156 -157 -158 -159 -160 -163 -165 -166 -170 -172 -173 -174 -175 -176 -177 -178 -179 0 
-87 172 -154 -155 -156 -157 -158 -159 -160 -163 -165 -166 -170 -173 -174 -175 -176 -177 -178 -179 0 
-88 1 8 9 15 20 22 29 31 66 71 96 101 107 110 111 129 136 153 173 -154 -155 -156 -157 -158 -159 -160 -163 -165 -166 -170 -172 -174 -175 -176 -177 -178 -179 0 
-88 1 8 9 15 20 22 29 31 66 71 96 101 107 110 111 129 136 153 -89 173 -154 -155 -156 -157 -158 -159 -160 -163 -165 -166 -170 -172 -174 -175 -176 -177 -178 -179 0 
-90 5 30 33 50 55 60 64 65 77 91 94 97 108 117 127 151 152 172 -154 -155 -156 -157 -158 -159 -160 -163 -165 -166 -170 -173 -174 -175 -176 -177 -178 -179 0 
-91 5 30 33 50 55 60 64 65 77 90 94 97 108 117 127 151 152 -6 4 11 13 21 23 25 28 42 56 61 67 72 79 81 85 120 122 123 124 125 126 133 173 -154 -155 -156 -157 -158 -159 -160 -163 -165 -166 -170 -172 -174 -175 -176 -177 -178 -179 0 
-92 51 78 86 154 -155 -156 -157 -158 -159 -160 -163 -165 -166 -170 -172 -173 -174 -175 -176 -177 -178 -179 0 
-93 174 -154 -155 -156 -157 -158 -159 -160 -163 -165 -166 -170 -172 -173 -175 -176 -177 -178 -179 0 
-93 173 -154 -155 -156 -157 -158 -159 -160 -163 -165 -166 -170 -172 -174 -175 -176 -177 -178 -179 0 
-94 5 30 33 50 55 60 64 65 77 90 91 97 108 117 127 151 152 157 -154 -155 -156 -158 -159 -160 -163 -165 -166 -170 -172 -173 -174 -175 -176 -177 -178 -179 0 
-95 10 19 24 32 38 41 57 62 100 102 119 128 138 155 -154 -156 -157 -158 -159 -160 -163 -165 -166 -170 -172 -173 -174 -175 -176 -177 -178 -179 0 
-96 1 8 9 15 20 22 29 31 66 71 88 101 107 110 111 129 136 153 157 -154 -155 -156 -158 -159 -160 -163 -165 -166 -170 -172 -173 -174 -175 -176 -177 -178 -179 0 
-97 5 30 33 50 55 60 64 65 77 90 91 94 108 117 127 151 152 155 -154 -156 -157 -158 -159 -160 -163 -165 -166 -170 -172 -173 -174 -175 -176 -177 -178 -179 0 
-98 155 -154 -156 -157 -158 -159 -160 -163 -165 -166 -170 -172 -173 -174 -175 -176 -177 -178 -179 0 
-99 157 -154 -155 -156 -158 -159 -160 -163 -165 -166 -170 -172 -173 -174 -175 -176 -177 -178 -179 0 
-100 10 19 24 32 38 41 57 62 95 102 119 128 138 157 -154 -155 -156 -158 -159 -160 -163 -165 -166 -170 -172 -173 -174 -175 -176 -177 -178 -179 0 
-101 1 8 9 15 20 22 29 31 66 71 88 96 107 110 111 129 136 153 155 -154 -156 -157 -158 -159 -160 -163 -165 -166 -170 -172 -173 -174 -175 -176 -177 -178 -179 0 
-102 10 19 24 32 38 41 57 62 95 100 119 128 138 155 -154 -156 -157 -158 -159 -160 -163 -165 -166 -170 -172 -173 -174 -175 -176 -177 -178 -179 0 
-103 34 -6 4 11 13 21 23 25 28 42 56 61 67 72 79 81 85 120 122 123 124 125 126 133 155 -154 -156 -157 -158 -159 -160 -163 -165 -166 -170 -172 -173 -174 -175 -176 -177 -178 -179 0 
-104 -29 1 8 9 15 20 22 31 66 71 88 96 101 107 110 111 129 136 153 154 -155 -156 -157 -158 -159 -160 -163 -165 -166 -170 -172 -173 -174 -175 -176 -177 -178 -179 0 
-105 59 154 -155 -156 -157 -158 -159 -160 -163 -165 -166 -170 -172 -173 -174 -175 -176 -177 -178 -179 0 
-76 -30 5 33 50 55 60 64 65 77 90 91 94 97 108 117 127 151 152 154 -155 -156 -157 -158 -159 -160 -163 -165 -166 -170 -172 -173 -174 -175 -176 -177 -178 -179 0 
-106 3 154 -155 -156 -157 -158 -159 -160 -163 -165 -166 -170 -172 -173 -174 -175 -176 -177 -178 -179 0 
-107 1 8 9 15 20 22 29 31 66 71 88 96 101 110 111 129 136 153 155 -154 -156 -157 -158 -159 -160 -163 -165 -166 -170 -172 -173 -174 -175 -176 -177 -178 -179 0 
-108 5 30 33 50 55 60 64 65 77 90 91 94 97 117 127 151 152 175 -154 -155 -156 -157 -158 -159 -160 -163 -165 -166 -170 -172 -173 -174 -176 -177 -178 -179 0 
-57 10 19 24 32 38 41 62 95 100 102 119 128 138 -30 5 33 50 55 60 64 65 77 90 91 94 97 108 117 127 151 152 154 -155 -156 -157 -158 -159 -160 -163 -165 -166 -170 -172 -173 -174 -175 -176 -177 -178 -179 0 
-31 1 8 9 15 20 22 29 66 71 88 96 101 107 110 111 129 136 153 -109 155 -154 -156 -157 -158 -159 -160 -163 -165 -166 -170 -172 -173 -174 -175 -176 -177 -178 -179 0 
-110 1 8 9 15 20 22 29 31 66 71 88 96 101 107 111 129 136 153 175 -154 -155 -156 -157 -158 -159 -160 -163 -165 -166 -170 -172 -173 -174 -176 -177 -178 -179 0 
-111 1 8 9 15 20 22 29 31 66 71 88 96 101 107 110 129 136 153 175 -154 -155 -156 -157 -158 -159 -160 -163 -165 -166 -170 -172 -173 -174 -176 -177 -178 -179 0 
-112 115 154 -155 -156 -157 -158 -159 -160 -163 -165 -166 -170 -172 -173 -174 -175 -176 -177 -178 -179 0 
-113 70 163 -154 -155 -156 -157 -158 -159 -160 -165 -166 -170 -172 -173 -174 -175 -176 -177 -178 -179 0 
-114 172 -154 -155 -156 -157 -158 -159 -160 -163 -165 -166 -170 -173 -174 -175 -176 -177 -178 -179 0 
-47 134 176 -154 -155 -156 -157 -158 -159 -160 -163 -165 -166 -170 -172 -173 -174 -175 -177 -178 -179 0 
-115 112 154 -155 -156 -157 -158 -159 -160 -163 -165 -166 -170 -172 -173 -174 -175 -176 -177 -178 -179 0 
-84 -1 8 9 15 20 22 29 31 66 71 88 96 101 107 110 111 129 136 153 154 -155 -156 -157 -158 -159 -160 -163 -165 -166 -170 -172 -173 -174 -175 -176 -177 -178 -179 0 
-63 155 -154 -156 -157 -158 -159 -160 -163 -165 -166 -170 -172 -173 -174 -175 -176 -177 -178 -179 0 
-116 118 166 -154 -155 -156 -157 -158 -159 -160 -163 -165 -170 -172 -173 -174 -175 -176 -177 -178 -179 0 
-18 -19 10 24 32 38 41 57 62 95 100 102 119 128 138 157 -154 -155 -156 -158 -159 -160 -163 -165 -166 -170 -172 -173 -174 -175 -176 -177 -178 -179 0 
-117 5 30 33 50 55 60 64 65 77 90 91 94 97 108 127 151 152 154 -155 -156 -157 -158 -159 -160 -163 -165 -166 -170 -172 -173 -174 -175 -176 -177 -178 -179 0 
-24 10 19 32 38 41 57 62 95 100 102 119 128 138 -28 4 6 11 13 21 23 25 42 56 61 67 72 79 81 85 120 122 123 124 125 126 133 159 -154 -155 -156 -157 -158 -160 -163 -165 -166 -170 -172 -173 -174 -175 -176 -177 -178 -179 0 
-76 -19 10 24 32 38 41 57 62 95 100 102 119 128 138 157 -154 -155 -156 -158 -159 -160 -163 -165 -166 -170 -172 -173 -174 -175 -176 -177 -178 -179 0 
-118 116 155 -154 -156 -157 -158 -159 -160 -163 -165 -166 -170 -172 -173 -174 -175 -176 -177 -178 -179 0 
-119 10 19 24 32 38 41 57 62 95 100 102 128 138 155 -154 -156 -157 -158 -159 -160 -163 -165 -166 -170 -172 -173 -174 -175 -176 -177 -178 -179 0 
-1 8 9 15 20 22 29 31 66 71 88 96 101 107 110 111 129 136 153 -57 10 19 24 32 38 41 62 95 100 102 119 128 138 154 -155 -156 -157 -158 -159 -160 -163 -165 -166 -170 -172 -173 -174 -175 -176 -177 -178 -179 0 
-120 4 6 11 13 21 23 25 28 42 56 61 67 72 79 81 85 122 123 124 125 126 133 -47 134 160 -154 -155 -156 -157 -158 -159 -163 -165 -166 -170 -172 -173 -174 -175 -176 -177 -178 -179 0 
-121 -122 4 6 11 13 21 23 25 28 42 56 61 67 72 79 81 85 120 123 124 125 126 133 155 -154 -156 -157 -158 -159 -160 -163 -165 -166 -170 -172 -173 -174 -175 -176 -177 -178 -179 0 
-123 4 6 11 13 21 23 25 28 42 56 61 67 72 79 81 85 120 122 124 125 126 133 155 -154 -156 -157 -158 -159 -160 -163 -165 -166 -170 -172 -173 -174 -175 -176 -177 -178 -179 0 
-124 4 6 11 13 21 23 25 28 42 56 61 67 72 79 81 85 120 122 123 125 126 133 160 -154 -155 -156 -157 -158 -159 -163 -165 -166 -170 -172 -173 -174 -175 -176 -177 -178 -179 0 
-125 4 6 11 13 21 23 25 28 42 56 61 67 72 79 81 85 120 122 123 124 126 133 155 -154 -156 -157 -158 -159 -160 -163 -165 -166 -170 -172 -173 -174 -175 -176 -177 -178 -179 0 
-23 4 6 11 13 21 25 28 42 56 61 67 72 79 81 85 120 122 123 124 125 126 133 160 -154 -155 -156 -157 -158 -159 -163 -165 -166 -170 -172 -173 -174 -175 -176 -177 -178 -179 0 
-121 -126 4 6 11 13 21 23 25 28 42 56 61 67 72 79 81 85 120 122 123 124 125 133 155 -154 -156 -157 -158 -159 -160 -163 -165 -166 -170 -172 -173 -174 -175 -176 -177 -178 -179 0 
-76 -33 5 30 50 55 60 64 65 77 90 91 94 97 108 117 127 151 152 154 -155 -156 -157 -158 -159 -160 -163 -165 -166 -170 -172 -173 -174 -175 -176 -177 -178 -179 0 
-76 -1 8 9 15 20 22 29 31 66 71 88 96 101 107 110 111 129 136 153 154 -155 -156 -157 -158 -159 -160 -163 -165 -166 -170 -172 -173 -174 -175 -176 -177 -178 -179 0 
-53 -127 5 30 33 50 55 60 64 65 77 90 91 94 97 108 117 151 152 155 -154 -156 -157 -158 -159 -160 -163 -165 -166 -170 -172 -173 -174 -175 -176 -177 -178 -179 0 
-128 10 19 24 32 38 41 57 62 95 100 102 119 138 -129 1 8 9 15 20 22 29 31 66 71 88 96 101 107 110 111 136 153 155 -154 -156 -157 -158 -159 -160 -163 -165 -166 -170 -172 -173 -174 -175 -176 -177 -178 -179 0 
-9 1 8 15 20 22 29 31 66 71 88 96 101 107 110 111 129 136 153 -85 4 6 11 13 21 23 25 28 42 56 61 67 72 79 81 120 122 123 124 125 126 133 158 -154 -155 -156 -157 -159 -160 -163 -165 -166 -170 -172 -173 -174 -175 -176 -177 -178 -179 0 
-130 75 132 157 -154 -155 -156 -158 -159 -160 -163 -165 -166 -170 -172 -173 -174 -175 -176 -177 -178 -179 0 
-131 -25 4 6 11 13 21 23 28 42 56 61 67 72 79 81 85 120 122 123 124 125 126 133 157 -154 -155 -156 -158 -159 -160 -163 -165 -166 -170 -172 -173 -174 -175 -176 -177 -178 -179 0 
-132 75 130 177 -154 -155 -156 -157 -158 -159 -160 -163 -165 -166 -170 -172 -173 -174 -175 -176 -178 -179 0 
-133 4 6 11 13 21 23 25 28 42 56 61 67 72 79 81 85 120 122 123 124 125 126 -134 47 157 -154 -155 -156 -158 -159 -160 -163 -165 -166 -170 -172 -173 -174 -175 -176 -177 -178 -179 0 
-84 -135 157 -154 -155 -156 -158 -159 -160 -163 -165 -166 -170 -172 -173 -174 -175 -176 -177 -178 -179 0 
-136 1 8 9 15 20 22 29 31 66 71 88 96 101 107 110 111 129 153 154 -155 -156 -157 -158 -159 -160 -163 -165 -166 -170 -172 -173 -174 -175 -176 -177 -178 -179 0 
-137 -50 5 30 33 55 60 64 65 77 90 91 94 97 108 117 127 151 152 166 -154 -155 -156 -157 -158 -159 -160 -163 -165 -170 -172 -173 -174 -175 -176 -177 -178 -179 0 
-138 10 19 24 32 38 41 57 62 95 100 102 119 128 155 -154 -156 -157 -158 -159 -160 -163 -165 -166 -170 -172 -173 -174 -175 -176 -177 -178 -179 0 
-139 26 140 141 142 143 144 145 147 160 -154 -155 -156 -157 -158 -159 -163 -165 -166 -170 -172 -173 -174 -175 -176 -177 -178 -179 0 
-140 26 139 141 142 143 144 145 147 155 -154 -156 -157 -158 -159 -160 -163 -165 -166 -170 -172 -173 -174 -175 -176 -177 -178 -179 0 
-141 26 139 140 142 143 144 145 147 160 -154 -155 -156 -157 -158 -159 -163 -165 -166 -170 -172 -173 -174 -175 -176 -177 -178 -179 0 
-142 26 139 140 141 143 144 145 147 155 -154 -156 -157 -158 -159 -160 -163 -165 -166 -170 -172 -173 -174 -175 -176 -177 -178 -179 0 
-143 26 139 140 141 142 144 145 147 155 -154 -156 -157 -158 -159 -160 -163 -165 -166 -170 -172 -173 -174 -175 -176 -177 -178 -179 0 
-144 26 139 140 141 142 143 145 147 160 -154 -155 -156 -157 -158 -159 -163 -165 -166 -170 -172 -173 -174 -175 -176 -177 -178 -179 0 
-145 26 139 140 141 142 143 144 147 -146 160 -154 -155 -156 -157 -158 -159 -163 -165 -166 -170 -172 -173 -174 -175 -176 -177 -178 -179 0 
-145 26 139 140 141 142 143 144 147 160 -154 -155 -156 -157 -158 -159 -163 -165 -166 -170 -172 -173 -174 -175 -176 -177 -178 -179 0 
-147 26 139 140 141 142 143 144 145 160 -154 -155 -156 -157 -158 -159 -163 -165 -166 -170 -172 -173 -174 -175 -176 -177 -178 -179 0 
-84 -27 -25 4 6 11 13 21 23 28 42 56 61 67 72 79 81 85 120 122 123 124 125 126 133 157 -154 -155 -156 -158 -159 -160 -163 -165 -166 -170 -172 -173 -174 -175 -176 -177 -178 -179 0 
-25 4 6 11 13 21 23 28 42 56 61 67 72 79 81 85 120 122 123 124 125 126 133 157 -154 -155 -156 -158 -159 -160 -163 -165 -166 -170 -172 -173 -174 -175 -176 -177 -178 -179 0 
-28 4 6 11 13 21 23 25 42 56 61 67 72 79 81 85 120 122 123 124 125 126 133 159 -154 -155 -156 -157 -158 -160 -163 -165 -166 -170 -172 -173 -174 -175 -176 -177 -178 -179 0 
-43 16 40 80 -121 157 -154 -155 -156 -158 -159 -160 -163 -165 -166 -170 -172 -173 -174 -175 -176 -177 -178 -179 0 
-148 155 -154 -156 -157 -158 -159 -160 -163 -165 -166 -170 -172 -173 -174 -175 -176 -177 -178 -179 0 
-45 149 155 -154 -156 -157 -158 -159 -160 -163 -165 -166 -170 -172 -173 -174 -175 -176 -177 -178 -179 0 
-149 45 -45 149 155 -154 -156 -157 -158 -159 -160 -163 -165 -166 -170 -172 -173 -174 -175 -176 -177 -178 -179 0 
-150 178 -154 -155 -156 -157 -158 -159 -160 -163 -165 -166 -170 -172 -173 -174 -175 -176 -177 -179 0 
-38 10 19 24 32 41 57 62 95 100 102 119 128 138 163 -154 -155 -156 -157 -158 -159 -160 -165 -166 -170 -172 -173 -174 -175 -176 -177 -178 -179 0 
-151 5 30 33 50 55 60 64 65 77 90 91 94 97 108 117 127 152 176 -154 -155 -156 -157 -158 -159 -160 -163 -165 -166 -170 -172 -173 -174 -175 -177 -178 -179 0 
-152 5 30 33 50 55 60 64 65 77 90 91 94 97 108 117 127 151 179 -154 -155 -156 -157 -158 -159 -160 -163 -165 -166 -170 -172 -173 -174 -175 -176 -177 -178 0 
-153 1 8 9 15 20 22 29 31 66 71 88 96 101 107 110 111 129 136 176 -154 -155 -156 -157 -158 -159 -160 -163 -165 -166 -170 -172 -173 -174 -175 -177 -178 -179 0 
